p edge 250 3138
e 1 10
e 1 29
e 1 44
e 1 46
e 1 60
e 1 61
e 1 68
e 1 73
e 1 80
e 1 89
e 1 98
e 1 122
e 1 136
e 1 152
e 1 159
e 1 170
e 1 176
e 1 177
e 1 188
e 1 193
e 1 196
e 1 213
e 1 218
e 1 224
e 1 230
e 2 4
e 2 17
e 2 24
e 2 33
e 2 37
e 2 44
e 2 53
e 2 61
e 2 69
e 2 75
e 2 83
e 2 105
e 2 108
e 2 127
e 2 131
e 2 132
e 2 147
e 2 157
e 2 158
e 2 173
e 2 177
e 2 185
e 2 186
e 2 195
e 2 199
e 2 202
e 2 203
e 2 209
e 2 214
e 2 218
e 2 223
e 2 229
e 3 10
e 3 13
e 3 21
e 3 22
e 3 32
e 3 49
e 3 51
e 3 52
e 3 85
e 3 105
e 3 129
e 3 132
e 3 188
e 3 192
e 3 201
e 3 210
e 3 234
e 3 245
e 4 8
e 4 11
e 4 31
e 4 44
e 4 77
e 4 113
e 4 120
e 4 122
e 4 125
e 4 127
e 4 133
e 4 135
e 4 144
e 4 147
e 4 151
e 4 158
e 4 160
e 4 162
e 4 164
e 4 167
e 4 193
e 4 219
e 4 225
e 4 232
e 4 235
e 4 238
e 5 11
e 5 22
e 5 26
e 5 34
e 5 37
e 5 43
e 5 53
e 5 54
e 5 60
e 5 62
e 5 75
e 5 81
e 5 109
e 5 122
e 5 132
e 5 139
e 5 145
e 5 170
e 5 178
e 5 185
e 5 186
e 5 194
e 5 201
e 5 216
e 5 219
e 5 230
e 5 232
e 5 234
e 5 249
e 6 8
e 6 28
e 6 36
e 6 47
e 6 53
e 6 70
e 6 77
e 6 81
e 6 89
e 6 103
e 6 121
e 6 151
e 6 153
e 6 154
e 6 164
e 6 166
e 6 169
e 6 186
e 6 199
e 6 208
e 6 217
e 6 218
e 6 230
e 6 232
e 7 8
e 7 11
e 7 13
e 7 16
e 7 22
e 7 40
e 7 68
e 7 90
e 7 98
e 7 135
e 7 160
e 7 177
e 7 187
e 7 191
e 7 222
e 7 231
e 7 233
e 8 30
e 8 34
e 8 39
e 8 41
e 8 42
e 8 51
e 8 68
e 8 69
e 8 101
e 8 107
e 8 116
e 8 118
e 8 121
e 8 147
e 8 155
e 8 159
e 8 168
e 8 175
e 8 189
e 8 219
e 8 221
e 8 223
e 8 232
e 8 236
e 8 250
e 9 15
e 9 21
e 9 39
e 9 48
e 9 52
e 9 53
e 9 57
e 9 65
e 9 67
e 9 70
e 9 76
e 9 96
e 9 106
e 9 123
e 9 137
e 9 146
e 9 154
e 9 161
e 9 170
e 9 173
e 9 176
e 9 179
e 9 186
e 9 194
e 9 208
e 9 216
e 9 218
e 9 220
e 9 245
e 10 32
e 10 33
e 10 42
e 10 46
e 10 72
e 10 78
e 10 90
e 10 96
e 10 105
e 10 157
e 10 158
e 10 162
e 10 165
e 10 177
e 10 198
e 10 227
e 10 230
e 11 16
e 11 32
e 11 40
e 11 43
e 11 54
e 11 55
e 11 57
e 11 75
e 11 84
e 11 95
e 11 100
e 11 113
e 11 122
e 11 130
e 11 135
e 11 140
e 11 147
e 11 150
e 11 153
e 11 161
e 11 162
e 11 169
e 11 179
e 11 181
e 11 190
e 11 195
e 11 204
e 11 215
e 11 224
e 11 234
e 11 239
e 11 242
e 12 14
e 12 28
e 12 32
e 12 33
e 12 50
e 12 61
e 12 62
e 12 75
e 12 98
e 12 110
e 12 126
e 12 130
e 12 132
e 12 146
e 12 148
e 12 153
e 12 163
e 12 165
e 12 192
e 12 202
e 12 218
e 12 219
e 12 233
e 13 33
e 13 38
e 13 44
e 13 45
e 13 52
e 13 76
e 13 96
e 13 98
e 13 99
e 13 100
e 13 104
e 13 106
e 13 109
e 13 116
e 13 145
e 13 156
e 13 159
e 13 162
e 13 164
e 13 165
e 13 167
e 13 193
e 13 234
e 13 247
e 14 20
e 14 40
e 14 54
e 14 65
e 14 66
e 14 87
e 14 92
e 14 98
e 14 103
e 14 114
e 14 116
e 14 118
e 14 133
e 14 137
e 14 143
e 14 144
e 14 154
e 14 190
e 14 192
e 14 196
e 14 198
e 14 199
e 14 202
e 14 209
e 14 215
e 14 230
e 14 239
e 14 245
e 14 248
e 15 18
e 15 37
e 15 38
e 15 56
e 15 57
e 15 66
e 15 83
e 15 86
e 15 89
e 15 96
e 15 103
e 15 117
e 15 141
e 15 154
e 15 161
e 15 181
e 15 183
e 15 188
e 15 192
e 15 219
e 15 223
e 15 240
e 16 23
e 16 28
e 16 38
e 16 74
e 16 101
e 16 118
e 16 122
e 16 139
e 16 149
e 16 153
e 16 157
e 16 160
e 16 168
e 16 178
e 16 187
e 16 191
e 16 198
e 16 218
e 16 219
e 16 220
e 16 225
e 16 226
e 16 234
e 16 244
e 16 245
e 16 246
e 17 35
e 17 75
e 17 76
e 17 78
e 17 81
e 17 84
e 17 93
e 17 104
e 17 107
e 17 114
e 17 115
e 17 117
e 17 120
e 17 122
e 17 123
e 17 124
e 17 136
e 17 137
e 17 140
e 17 146
e 17 154
e 17 157
e 17 161
e 17 162
e 17 169
e 17 177
e 17 217
e 17 223
e 17 225
e 17 231
e 17 247
e 17 250
e 18 33
e 18 40
e 18 41
e 18 50
e 18 57
e 18 74
e 18 81
e 18 86
e 18 88
e 18 107
e 18 113
e 18 134
e 18 135
e 18 139
e 18 153
e 18 156
e 18 162
e 18 174
e 18 183
e 18 186
e 18 225
e 18 231
e 19 27
e 19 35
e 19 46
e 19 58
e 19 71
e 19 89
e 19 99
e 19 102
e 19 119
e 19 128
e 19 135
e 19 167
e 19 177
e 19 192
e 19 200
e 19 204
e 19 209
e 19 215
e 19 218
e 19 221
e 19 233
e 20 26
e 20 33
e 20 53
e 20 57
e 20 86
e 20 115
e 20 129
e 20 146
e 20 180
e 20 205
e 20 218
e 20 230
e 20 241
e 21 34
e 21 45
e 21 81
e 21 92
e 21 146
e 21 150
e 21 209
e 21 215
e 21 223
e 21 244
e 22 32
e 22 34
e 22 36
e 22 39
e 22 41
e 22 55
e 22 58
e 22 65
e 22 80
e 22 82
e 22 88
e 22 90
e 22 141
e 22 143
e 22 150
e 22 158
e 22 166
e 22 182
e 22 184
e 22 199
e 22 241
e 23 27
e 23 38
e 23 58
e 23 66
e 23 75
e 23 88
e 23 92
e 23 93
e 23 112
e 23 123
e 23 138
e 23 146
e 23 152
e 23 159
e 23 164
e 23 183
e 23 186
e 23 230
e 24 43
e 24 45
e 24 54
e 24 60
e 24 92
e 24 100
e 24 104
e 24 143
e 24 146
e 24 151
e 24 163
e 24 169
e 24 173
e 24 179
e 24 187
e 24 188
e 24 194
e 24 195
e 24 200
e 24 206
e 24 209
e 24 218
e 24 237
e 24 238
e 24 239
e 25 45
e 25 50
e 25 62
e 25 67
e 25 77
e 25 82
e 25 83
e 25 104
e 25 105
e 25 107
e 25 112
e 25 122
e 25 132
e 25 135
e 25 144
e 25 155
e 25 165
e 25 178
e 25 184
e 25 186
e 25 191
e 25 194
e 25 197
e 25 224
e 25 243
e 25 249
e 26 27
e 26 28
e 26 84
e 26 98
e 26 110
e 26 114
e 26 128
e 26 136
e 26 146
e 26 168
e 26 173
e 26 201
e 26 211
e 26 214
e 26 225
e 26 233
e 26 236
e 27 30
e 27 41
e 27 46
e 27 49
e 27 55
e 27 65
e 27 97
e 27 100
e 27 122
e 27 164
e 27 172
e 27 186
e 27 187
e 27 196
e 27 218
e 27 219
e 27 224
e 27 226
e 28 46
e 28 48
e 28 82
e 28 87
e 28 88
e 28 92
e 28 123
e 28 136
e 28 139
e 28 143
e 28 148
e 28 162
e 28 165
e 28 172
e 28 173
e 28 175
e 28 176
e 28 187
e 28 201
e 28 231
e 28 247
e 29 55
e 29 57
e 29 58
e 29 63
e 29 74
e 29 79
e 29 92
e 29 94
e 29 96
e 29 145
e 29 152
e 29 167
e 29 171
e 29 176
e 29 182
e 29 188
e 29 190
e 29 214
e 29 223
e 29 243
e 30 38
e 30 39
e 30 53
e 30 56
e 30 67
e 30 75
e 30 83
e 30 109
e 30 111
e 30 113
e 30 117
e 30 121
e 30 123
e 30 124
e 30 140
e 30 143
e 30 148
e 30 157
e 30 166
e 30 173
e 30 175
e 30 209
e 30 217
e 30 232
e 30 241
e 30 244
e 31 43
e 31 44
e 31 46
e 31 65
e 31 71
e 31 86
e 31 125
e 31 127
e 31 137
e 31 139
e 31 151
e 31 156
e 31 163
e 31 164
e 31 165
e 31 171
e 31 173
e 31 193
e 31 201
e 31 206
e 31 227
e 32 52
e 32 57
e 32 60
e 32 71
e 32 77
e 32 84
e 32 85
e 32 93
e 32 98
e 32 108
e 32 120
e 32 132
e 32 143
e 32 151
e 32 164
e 32 172
e 32 175
e 32 176
e 32 184
e 32 185
e 32 189
e 32 221
e 32 232
e 33 41
e 33 75
e 33 84
e 33 92
e 33 107
e 33 116
e 33 119
e 33 139
e 33 159
e 33 160
e 33 164
e 33 176
e 33 177
e 33 181
e 33 187
e 33 195
e 33 213
e 33 225
e 33 226
e 33 234
e 33 235
e 33 240
e 33 247
e 34 38
e 34 39
e 34 47
e 34 56
e 34 69
e 34 72
e 34 73
e 34 77
e 34 82
e 34 93
e 34 103
e 34 142
e 34 157
e 34 164
e 34 167
e 34 174
e 34 179
e 34 208
e 34 217
e 34 219
e 34 225
e 34 236
e 34 239
e 34 241
e 34 243
e 35 41
e 35 47
e 35 52
e 35 58
e 35 75
e 35 78
e 35 79
e 35 82
e 35 83
e 35 98
e 35 108
e 35 110
e 35 116
e 35 125
e 35 132
e 35 139
e 35 143
e 35 151
e 35 152
e 35 173
e 35 178
e 35 186
e 35 187
e 35 196
e 35 202
e 35 213
e 35 214
e 35 217
e 35 218
e 35 222
e 35 230
e 36 47
e 36 53
e 36 69
e 36 74
e 36 76
e 36 84
e 36 95
e 36 102
e 36 137
e 36 138
e 36 162
e 36 170
e 36 172
e 36 197
e 36 201
e 36 224
e 36 226
e 36 238
e 36 244
e 37 38
e 37 39
e 37 81
e 37 100
e 37 105
e 37 120
e 37 122
e 37 125
e 37 127
e 37 139
e 37 146
e 37 149
e 37 151
e 37 165
e 37 181
e 37 196
e 37 200
e 37 208
e 37 225
e 37 227
e 37 247
e 38 42
e 38 49
e 38 51
e 38 53
e 38 72
e 38 73
e 38 92
e 38 93
e 38 94
e 38 108
e 38 132
e 38 139
e 38 140
e 38 141
e 38 143
e 38 149
e 38 171
e 38 184
e 38 188
e 38 190
e 38 195
e 38 207
e 38 208
e 38 209
e 38 215
e 38 217
e 38 218
e 39 40
e 39 48
e 39 51
e 39 74
e 39 86
e 39 90
e 39 93
e 39 94
e 39 96
e 39 101
e 39 108
e 39 114
e 39 153
e 39 175
e 39 185
e 39 187
e 39 205
e 39 213
e 39 222
e 39 228
e 39 234
e 39 235
e 39 243
e 40 53
e 40 60
e 40 65
e 40 73
e 40 76
e 40 78
e 40 83
e 40 85
e 40 90
e 40 93
e 40 97
e 40 107
e 40 113
e 40 136
e 40 140
e 40 152
e 40 161
e 40 178
e 40 191
e 40 192
e 40 201
e 40 225
e 40 239
e 40 242
e 40 245
e 40 250
e 41 51
e 41 63
e 41 80
e 41 82
e 41 88
e 41 92
e 41 93
e 41 94
e 41 107
e 41 127
e 41 135
e 41 142
e 41 143
e 41 148
e 41 150
e 41 152
e 41 153
e 41 164
e 41 176
e 41 194
e 41 195
e 41 198
e 41 202
e 41 206
e 41 223
e 41 242
e 42 43
e 42 52
e 42 73
e 42 103
e 42 110
e 42 139
e 42 151
e 42 173
e 42 178
e 42 197
e 42 209
e 42 222
e 42 231
e 42 239
e 43 65
e 43 77
e 43 82
e 43 86
e 43 99
e 43 109
e 43 111
e 43 112
e 43 113
e 43 116
e 43 117
e 43 143
e 43 146
e 43 150
e 43 156
e 43 158
e 43 170
e 43 180
e 43 186
e 43 200
e 43 208
e 43 227
e 43 234
e 44 54
e 44 93
e 44 97
e 44 105
e 44 110
e 44 146
e 44 150
e 44 151
e 44 161
e 44 169
e 44 194
e 44 196
e 44 208
e 44 210
e 44 213
e 44 224
e 44 232
e 44 234
e 45 46
e 45 47
e 45 66
e 45 106
e 45 118
e 45 125
e 45 126
e 45 140
e 45 158
e 45 186
e 45 189
e 45 198
e 45 207
e 45 220
e 45 221
e 45 222
e 45 225
e 45 240
e 45 241
e 45 248
e 46 53
e 46 84
e 46 105
e 46 162
e 46 175
e 46 179
e 46 187
e 46 198
e 46 211
e 46 232
e 46 234
e 47 78
e 47 95
e 47 118
e 47 122
e 47 125
e 47 137
e 47 147
e 47 167
e 47 169
e 47 171
e 47 174
e 47 175
e 47 220
e 47 221
e 47 232
e 47 237
e 47 248
e 48 55
e 48 60
e 48 69
e 48 99
e 48 106
e 48 109
e 48 115
e 48 134
e 48 159
e 48 161
e 48 165
e 48 172
e 48 175
e 48 201
e 48 210
e 48 228
e 48 229
e 49 50
e 49 66
e 49 68
e 49 69
e 49 73
e 49 74
e 49 98
e 49 111
e 49 132
e 49 141
e 49 153
e 49 162
e 49 165
e 49 180
e 49 182
e 49 186
e 49 197
e 49 198
e 49 202
e 49 204
e 49 211
e 49 212
e 49 215
e 49 218
e 49 224
e 49 228
e 49 238
e 50 52
e 50 56
e 50 63
e 50 70
e 50 73
e 50 86
e 50 107
e 50 110
e 50 137
e 50 154
e 50 159
e 50 162
e 50 164
e 50 170
e 50 183
e 50 188
e 50 190
e 50 220
e 50 224
e 50 234
e 51 82
e 51 85
e 51 86
e 51 105
e 51 123
e 51 127
e 51 135
e 51 136
e 51 146
e 51 158
e 51 171
e 51 172
e 51 200
e 51 201
e 51 238
e 51 239
e 51 240
e 51 247
e 52 53
e 52 64
e 52 68
e 52 69
e 52 70
e 52 72
e 52 73
e 52 84
e 52 85
e 52 95
e 52 109
e 52 120
e 52 127
e 52 130
e 52 141
e 52 148
e 52 151
e 52 152
e 52 182
e 52 184
e 52 186
e 52 210
e 52 214
e 52 217
e 52 220
e 52 221
e 52 224
e 52 225
e 52 226
e 52 235
e 52 241
e 52 242
e 53 55
e 53 57
e 53 69
e 53 88
e 53 91
e 53 93
e 53 139
e 53 143
e 53 153
e 53 169
e 53 173
e 53 174
e 53 175
e 53 182
e 53 183
e 53 192
e 53 196
e 53 214
e 53 225
e 53 238
e 53 241
e 53 242
e 53 244
e 54 73
e 54 93
e 54 104
e 54 108
e 54 111
e 54 130
e 54 142
e 54 147
e 54 156
e 54 188
e 54 189
e 54 195
e 54 218
e 54 221
e 54 226
e 54 241
e 54 246
e 54 249
e 55 60
e 55 70
e 55 79
e 55 84
e 55 86
e 55 91
e 55 92
e 55 95
e 55 125
e 55 128
e 55 138
e 55 139
e 55 170
e 55 171
e 55 173
e 55 206
e 55 209
e 55 213
e 55 215
e 55 219
e 55 235
e 55 236
e 55 244
e 56 66
e 56 67
e 56 87
e 56 88
e 56 93
e 56 103
e 56 122
e 56 131
e 56 136
e 56 142
e 56 168
e 56 190
e 56 200
e 56 213
e 56 218
e 56 235
e 56 236
e 56 242
e 57 59
e 57 63
e 57 73
e 57 87
e 57 95
e 57 97
e 57 100
e 57 106
e 57 124
e 57 137
e 57 173
e 57 190
e 57 192
e 57 211
e 57 213
e 57 216
e 57 220
e 57 226
e 57 227
e 57 231
e 57 233
e 57 239
e 57 246
e 57 247
e 58 64
e 58 75
e 58 95
e 58 116
e 58 149
e 58 160
e 58 165
e 58 168
e 58 178
e 58 186
e 58 191
e 58 192
e 58 207
e 58 227
e 58 230
e 58 232
e 58 243
e 58 249
e 59 60
e 59 109
e 59 135
e 59 138
e 59 146
e 59 159
e 59 165
e 59 168
e 59 172
e 59 179
e 59 183
e 59 200
e 59 225
e 59 231
e 59 245
e 59 246
e 59 248
e 59 249
e 60 77
e 60 87
e 60 89
e 60 93
e 60 119
e 60 140
e 60 148
e 60 149
e 60 157
e 60 163
e 60 181
e 60 185
e 60 190
e 60 195
e 60 197
e 60 198
e 60 205
e 60 227
e 61 83
e 61 93
e 61 107
e 61 110
e 61 117
e 61 134
e 61 137
e 61 151
e 61 171
e 61 172
e 61 175
e 61 176
e 61 180
e 61 187
e 61 189
e 61 196
e 61 198
e 61 211
e 61 214
e 61 221
e 61 222
e 61 237
e 62 80
e 62 88
e 62 101
e 62 116
e 62 139
e 62 151
e 62 172
e 62 180
e 62 200
e 62 208
e 62 218
e 62 226
e 62 229
e 62 231
e 62 242
e 63 88
e 63 89
e 63 93
e 63 96
e 63 98
e 63 100
e 63 110
e 63 111
e 63 120
e 63 125
e 63 131
e 63 134
e 63 147
e 63 162
e 63 167
e 63 172
e 63 180
e 63 191
e 63 200
e 63 201
e 63 202
e 63 213
e 63 214
e 63 226
e 63 229
e 63 239
e 64 69
e 64 84
e 64 86
e 64 91
e 64 92
e 64 100
e 64 111
e 64 117
e 64 121
e 64 130
e 64 134
e 64 138
e 64 179
e 64 186
e 64 190
e 64 194
e 64 195
e 64 201
e 64 212
e 64 227
e 64 230
e 64 248
e 65 109
e 65 111
e 65 135
e 65 150
e 65 163
e 65 170
e 65 171
e 65 177
e 65 190
e 65 218
e 65 231
e 65 247
e 65 248
e 66 71
e 66 95
e 66 106
e 66 113
e 66 131
e 66 142
e 66 144
e 66 158
e 66 170
e 66 184
e 66 191
e 66 198
e 66 215
e 66 243
e 66 246
e 67 75
e 67 93
e 67 95
e 67 96
e 67 98
e 67 112
e 67 116
e 67 127
e 67 155
e 67 168
e 67 173
e 67 177
e 67 181
e 67 183
e 67 187
e 67 206
e 67 227
e 68 81
e 68 92
e 68 96
e 68 106
e 68 118
e 68 119
e 68 120
e 68 121
e 68 129
e 68 130
e 68 145
e 68 196
e 68 200
e 68 206
e 68 250
e 69 70
e 69 91
e 69 121
e 69 136
e 69 145
e 69 152
e 69 155
e 69 158
e 69 177
e 69 178
e 69 180
e 69 184
e 69 191
e 69 212
e 69 216
e 69 250
e 70 92
e 70 99
e 70 113
e 70 114
e 70 153
e 70 156
e 70 170
e 70 185
e 70 213
e 70 227
e 70 229
e 71 77
e 71 104
e 71 114
e 71 137
e 71 153
e 71 179
e 71 187
e 71 191
e 71 198
e 71 214
e 71 222
e 71 234
e 72 75
e 72 76
e 72 84
e 72 161
e 72 219
e 72 220
e 72 228
e 72 241
e 72 244
e 73 81
e 73 91
e 73 107
e 73 112
e 73 131
e 73 158
e 73 168
e 73 170
e 73 175
e 73 181
e 73 184
e 73 188
e 73 189
e 73 195
e 73 198
e 73 207
e 73 234
e 73 237
e 73 247
e 74 96
e 74 98
e 74 100
e 74 115
e 74 120
e 74 136
e 74 148
e 74 151
e 74 162
e 74 163
e 74 166
e 74 178
e 74 191
e 74 197
e 74 204
e 74 236
e 75 116
e 75 126
e 75 130
e 75 133
e 75 147
e 75 155
e 75 164
e 75 173
e 75 179
e 75 181
e 75 189
e 75 213
e 75 230
e 75 246
e 76 83
e 76 86
e 76 87
e 76 88
e 76 92
e 76 104
e 76 137
e 76 140
e 76 146
e 76 159
e 76 178
e 76 188
e 76 194
e 76 220
e 76 222
e 76 227
e 76 246
e 76 250
e 77 95
e 77 98
e 77 116
e 77 121
e 77 135
e 77 152
e 77 167
e 77 171
e 77 181
e 77 210
e 78 84
e 78 94
e 78 105
e 78 117
e 78 130
e 78 148
e 78 149
e 78 150
e 78 153
e 78 172
e 78 173
e 78 184
e 78 216
e 78 220
e 78 229
e 78 247
e 79 100
e 79 108
e 79 114
e 79 136
e 79 157
e 79 169
e 79 175
e 79 181
e 79 194
e 79 200
e 79 203
e 79 206
e 79 218
e 79 229
e 79 236
e 79 244
e 80 109
e 80 126
e 80 133
e 80 149
e 80 156
e 80 179
e 80 197
e 80 217
e 80 220
e 80 227
e 80 230
e 80 245
e 80 246
e 81 97
e 81 111
e 81 148
e 81 151
e 81 158
e 81 161
e 81 168
e 81 175
e 81 180
e 81 184
e 81 190
e 81 214
e 82 86
e 82 91
e 82 103
e 82 104
e 82 117
e 82 124
e 82 153
e 82 155
e 82 160
e 82 164
e 82 190
e 82 191
e 82 197
e 82 209
e 82 212
e 82 214
e 82 224
e 82 244
e 83 84
e 83 104
e 83 123
e 83 134
e 83 143
e 83 145
e 83 149
e 83 172
e 83 180
e 83 191
e 83 209
e 83 213
e 83 226
e 83 227
e 83 238
e 83 241
e 84 86
e 84 102
e 84 105
e 84 113
e 84 134
e 84 152
e 84 172
e 84 175
e 84 185
e 84 188
e 84 218
e 84 224
e 84 240
e 85 87
e 85 88
e 85 97
e 85 107
e 85 120
e 85 123
e 85 144
e 85 148
e 85 164
e 85 165
e 85 166
e 85 180
e 85 184
e 85 185
e 85 199
e 85 217
e 85 219
e 85 240
e 85 245
e 86 93
e 86 99
e 86 112
e 86 124
e 86 134
e 86 137
e 86 139
e 86 150
e 86 154
e 86 187
e 86 201
e 86 204
e 86 217
e 86 218
e 86 224
e 86 227
e 86 230
e 86 244
e 86 245
e 87 92
e 87 99
e 87 107
e 87 120
e 87 124
e 87 125
e 87 133
e 87 159
e 87 163
e 87 167
e 87 175
e 87 177
e 87 220
e 87 224
e 87 226
e 87 232
e 87 234
e 87 246
e 87 248
e 88 103
e 88 104
e 88 112
e 88 132
e 88 138
e 88 139
e 88 150
e 88 153
e 88 169
e 88 172
e 88 184
e 88 196
e 88 209
e 88 214
e 88 216
e 88 226
e 88 239
e 88 245
e 88 249
e 89 97
e 89 98
e 89 109
e 89 113
e 89 117
e 89 118
e 89 123
e 89 144
e 89 152
e 89 165
e 89 167
e 89 186
e 89 201
e 89 204
e 89 210
e 89 235
e 90 91
e 90 92
e 90 93
e 90 95
e 90 105
e 90 106
e 90 159
e 90 161
e 90 162
e 90 169
e 90 172
e 90 199
e 90 217
e 90 218
e 90 223
e 90 225
e 90 229
e 90 239
e 90 250
e 91 123
e 91 131
e 91 142
e 91 143
e 91 150
e 91 156
e 91 172
e 91 173
e 91 196
e 91 197
e 91 200
e 91 205
e 91 225
e 91 231
e 92 101
e 92 104
e 92 105
e 92 128
e 92 156
e 92 162
e 92 191
e 92 203
e 92 204
e 92 219
e 92 220
e 92 223
e 92 232
e 93 100
e 93 103
e 93 106
e 93 122
e 93 125
e 93 139
e 93 141
e 93 149
e 93 161
e 93 165
e 93 169
e 93 179
e 93 186
e 93 197
e 93 198
e 93 212
e 93 238
e 93 248
e 94 101
e 94 102
e 94 109
e 94 112
e 94 124
e 94 130
e 94 133
e 94 136
e 94 159
e 94 160
e 94 162
e 94 165
e 94 168
e 94 171
e 94 177
e 94 187
e 94 197
e 94 208
e 94 211
e 94 218
e 94 221
e 94 222
e 94 227
e 94 228
e 94 239
e 94 240
e 94 241
e 94 249
e 95 117
e 95 133
e 95 144
e 95 160
e 95 176
e 95 178
e 95 184
e 95 186
e 95 192
e 95 194
e 95 199
e 95 207
e 95 222
e 95 225
e 96 100
e 96 102
e 96 104
e 96 124
e 96 135
e 96 164
e 96 170
e 96 171
e 96 177
e 96 207
e 96 211
e 96 213
e 96 217
e 96 221
e 96 225
e 96 242
e 97 101
e 97 107
e 97 115
e 97 124
e 97 131
e 97 137
e 97 138
e 97 171
e 97 173
e 97 182
e 97 187
e 97 240
e 97 245
e 98 106
e 98 112
e 98 113
e 98 129
e 98 138
e 98 142
e 98 145
e 98 147
e 98 154
e 98 156
e 98 183
e 98 187
e 98 199
e 98 203
e 98 206
e 98 212
e 98 218
e 98 231
e 98 250
e 99 131
e 99 147
e 99 159
e 99 176
e 99 179
e 99 182
e 99 187
e 99 198
e 99 201
e 99 212
e 99 236
e 100 115
e 100 121
e 100 127
e 100 136
e 100 137
e 100 153
e 100 165
e 100 168
e 100 169
e 100 176
e 100 178
e 100 179
e 100 186
e 100 190
e 100 192
e 100 206
e 100 236
e 101 110
e 101 118
e 101 130
e 101 142
e 101 144
e 101 155
e 101 172
e 101 174
e 101 184
e 101 197
e 101 199
e 101 230
e 101 236
e 101 240
e 101 243
e 102 129
e 102 147
e 102 150
e 102 151
e 102 162
e 102 174
e 102 176
e 102 177
e 102 178
e 102 196
e 102 205
e 102 210
e 102 214
e 102 220
e 103 106
e 103 113
e 103 122
e 103 135
e 103 148
e 103 151
e 103 161
e 103 162
e 103 165
e 103 172
e 103 193
e 103 194
e 103 214
e 103 235
e 103 239
e 103 240
e 104 119
e 104 153
e 104 156
e 104 162
e 104 164
e 104 174
e 104 182
e 104 188
e 104 208
e 105 124
e 105 129
e 105 134
e 105 139
e 105 140
e 105 146
e 105 148
e 105 164
e 105 190
e 105 201
e 105 211
e 105 248
e 106 119
e 106 138
e 106 174
e 106 181
e 106 194
e 106 203
e 106 206
e 106 229
e 106 239
e 106 240
e 106 245
e 107 141
e 107 146
e 107 148
e 107 173
e 107 175
e 107 186
e 107 192
e 107 194
e 107 203
e 107 205
e 107 217
e 107 218
e 107 221
e 108 120
e 108 137
e 108 138
e 108 155
e 108 157
e 108 167
e 108 172
e 108 192
e 108 225
e 108 232
e 108 247
e 109 121
e 109 129
e 109 146
e 109 156
e 109 158
e 109 165
e 109 178
e 109 191
e 109 210
e 109 229
e 109 240
e 109 241
e 109 242
e 109 247
e 109 249
e 110 152
e 110 154
e 110 163
e 110 164
e 110 174
e 110 177
e 110 180
e 110 193
e 110 200
e 110 215
e 110 219
e 110 220
e 110 225
e 110 232
e 110 239
e 110 248
e 111 126
e 111 155
e 111 158
e 111 159
e 111 161
e 111 177
e 111 189
e 111 197
e 111 240
e 111 244
e 112 118
e 112 122
e 112 138
e 112 166
e 112 168
e 112 173
e 112 174
e 112 175
e 112 179
e 112 180
e 112 189
e 112 190
e 112 201
e 112 225
e 112 237
e 112 238
e 113 127
e 113 131
e 113 144
e 113 147
e 113 148
e 113 160
e 113 162
e 113 163
e 113 168
e 113 169
e 113 174
e 113 184
e 113 198
e 113 203
e 113 207
e 113 241
e 113 243
e 114 135
e 114 144
e 114 150
e 114 155
e 114 165
e 114 177
e 114 179
e 114 180
e 114 182
e 114 184
e 114 200
e 114 202
e 114 208
e 114 226
e 114 231
e 114 245
e 114 248
e 115 124
e 115 127
e 115 128
e 115 132
e 115 135
e 115 141
e 115 143
e 115 146
e 115 151
e 115 162
e 115 168
e 115 170
e 115 188
e 115 192
e 115 199
e 115 227
e 115 236
e 116 126
e 116 129
e 116 134
e 116 154
e 116 166
e 116 179
e 116 181
e 116 189
e 116 192
e 116 219
e 116 238
e 116 246
e 117 126
e 117 147
e 117 168
e 117 191
e 117 192
e 117 196
e 117 206
e 117 211
e 117 215
e 117 225
e 117 229
e 117 237
e 118 122
e 118 124
e 118 140
e 118 147
e 118 154
e 118 159
e 118 169
e 118 183
e 118 196
e 118 209
e 118 222
e 118 224
e 118 225
e 118 230
e 118 249
e 119 130
e 119 138
e 119 145
e 119 157
e 119 171
e 119 190
e 119 198
e 119 203
e 119 235
e 119 245
e 120 131
e 120 148
e 120 159
e 120 163
e 120 169
e 120 195
e 120 213
e 120 215
e 120 217
e 120 229
e 120 231
e 120 243
e 120 246
e 120 248
e 120 250
e 121 124
e 121 126
e 121 146
e 121 147
e 121 152
e 121 157
e 121 158
e 121 167
e 121 173
e 121 194
e 121 196
e 121 201
e 121 203
e 121 207
e 121 230
e 121 240
e 122 125
e 122 127
e 122 135
e 122 136
e 122 139
e 122 140
e 122 147
e 122 166
e 122 169
e 122 170
e 122 187
e 122 198
e 122 211
e 122 213
e 122 214
e 122 224
e 122 243
e 122 247
e 122 248
e 123 162
e 123 164
e 123 175
e 123 179
e 123 180
e 123 203
e 123 204
e 123 208
e 123 213
e 123 214
e 123 226
e 123 238
e 123 241
e 124 125
e 124 131
e 124 159
e 124 170
e 124 171
e 124 193
e 124 194
e 124 198
e 124 203
e 124 212
e 124 227
e 124 230
e 125 136
e 125 146
e 125 151
e 125 152
e 125 160
e 125 162
e 125 179
e 125 198
e 125 223
e 125 234
e 125 236
e 125 242
e 125 247
e 126 136
e 126 162
e 126 187
e 126 188
e 126 205
e 126 206
e 126 225
e 126 228
e 126 248
e 127 131
e 127 136
e 127 146
e 127 148
e 127 150
e 127 158
e 127 171
e 127 174
e 127 176
e 127 180
e 127 189
e 127 194
e 127 195
e 127 197
e 127 202
e 127 212
e 127 215
e 127 227
e 127 232
e 127 235
e 127 248
e 128 145
e 128 147
e 128 173
e 128 178
e 128 183
e 128 187
e 128 190
e 128 193
e 128 195
e 128 224
e 128 225
e 128 229
e 128 233
e 128 246
e 128 248
e 129 131
e 129 139
e 129 149
e 129 156
e 129 169
e 129 179
e 129 181
e 129 225
e 129 226
e 129 227
e 129 230
e 129 239
e 130 133
e 130 138
e 130 147
e 130 154
e 130 167
e 130 168
e 130 174
e 130 182
e 130 191
e 130 193
e 130 195
e 130 197
e 130 217
e 130 232
e 130 241
e 130 242
e 130 247
e 130 250
e 131 136
e 131 165
e 131 168
e 131 180
e 131 182
e 131 187
e 131 191
e 131 198
e 131 227
e 131 230
e 131 234
e 131 242
e 131 245
e 132 136
e 132 140
e 132 148
e 132 155
e 132 179
e 132 192
e 132 201
e 132 226
e 132 229
e 132 241
e 132 245
e 132 247
e 133 136
e 133 137
e 133 141
e 133 147
e 133 155
e 133 163
e 133 182
e 133 184
e 133 190
e 133 201
e 133 203
e 133 212
e 133 216
e 133 219
e 133 234
e 133 242
e 133 248
e 134 144
e 134 149
e 134 153
e 134 154
e 134 156
e 134 162
e 134 163
e 134 168
e 134 185
e 134 189
e 134 199
e 134 200
e 134 204
e 134 215
e 134 222
e 134 237
e 134 250
e 135 139
e 135 146
e 135 161
e 135 169
e 135 172
e 135 177
e 135 178
e 135 187
e 135 196
e 135 201
e 135 214
e 135 216
e 135 219
e 135 229
e 135 245
e 135 248
e 135 250
e 136 137
e 136 142
e 136 143
e 136 151
e 136 173
e 136 178
e 136 184
e 136 195
e 136 213
e 136 220
e 136 223
e 136 226
e 136 227
e 136 235
e 136 241
e 137 138
e 137 147
e 137 149
e 137 183
e 137 189
e 137 191
e 137 195
e 137 205
e 137 209
e 137 227
e 137 242
e 137 249
e 138 139
e 138 146
e 138 156
e 138 169
e 138 185
e 138 195
e 138 198
e 138 208
e 138 216
e 138 222
e 138 231
e 138 232
e 138 238
e 139 140
e 139 146
e 139 147
e 139 158
e 139 169
e 139 192
e 139 221
e 139 240
e 140 152
e 140 168
e 140 173
e 140 181
e 140 199
e 140 201
e 140 214
e 140 232
e 140 235
e 141 151
e 141 152
e 141 162
e 141 163
e 141 175
e 141 181
e 141 182
e 141 187
e 141 197
e 141 230
e 141 232
e 141 244
e 141 245
e 142 154
e 142 156
e 142 162
e 142 180
e 142 208
e 142 210
e 142 224
e 142 248
e 143 149
e 143 157
e 143 160
e 143 168
e 143 169
e 143 173
e 143 198
e 143 204
e 143 245
e 143 246
e 143 250
e 144 149
e 144 154
e 144 164
e 144 168
e 144 177
e 144 196
e 144 208
e 144 211
e 144 213
e 144 218
e 144 228
e 145 150
e 145 156
e 145 158
e 145 164
e 145 166
e 145 186
e 145 197
e 145 200
e 145 203
e 145 221
e 145 238
e 145 246
e 145 247
e 146 154
e 146 161
e 146 173
e 146 216
e 146 232
e 146 245
e 147 151
e 147 158
e 147 162
e 147 175
e 147 176
e 147 206
e 147 211
e 147 231
e 147 245
e 147 248
e 148 152
e 148 161
e 148 173
e 148 186
e 148 195
e 148 245
e 149 156
e 149 164
e 149 166
e 149 170
e 149 200
e 149 205
e 149 207
e 149 213
e 149 229
e 150 151
e 150 172
e 150 200
e 150 202
e 150 218
e 150 242
e 151 156
e 151 158
e 151 166
e 151 168
e 151 179
e 151 185
e 151 191
e 151 196
e 151 204
e 151 219
e 151 231
e 151 236
e 151 237
e 152 153
e 152 155
e 152 162
e 152 166
e 152 170
e 152 189
e 152 193
e 152 205
e 152 213
e 153 160
e 153 161
e 153 169
e 153 185
e 153 193
e 153 195
e 153 197
e 153 199
e 153 212
e 153 216
e 153 237
e 154 156
e 154 165
e 154 169
e 154 179
e 154 205
e 154 211
e 154 224
e 154 227
e 154 250
e 155 161
e 155 183
e 155 187
e 155 188
e 155 199
e 155 202
e 155 209
e 155 238
e 155 239
e 155 241
e 155 247
e 156 160
e 156 180
e 156 189
e 156 194
e 156 199
e 156 230
e 156 233
e 156 237
e 157 163
e 157 174
e 157 178
e 157 183
e 157 192
e 157 203
e 157 213
e 157 216
e 157 218
e 157 235
e 157 239
e 158 190
e 158 196
e 158 201
e 158 203
e 158 209
e 158 218
e 158 221
e 158 247
e 159 164
e 159 168
e 159 169
e 159 190
e 159 213
e 159 242
e 159 247
e 160 165
e 160 182
e 160 187
e 160 193
e 160 202
e 160 204
e 160 207
e 160 211
e 160 213
e 160 216
e 160 219
e 160 221
e 160 241
e 160 242
e 160 245
e 161 167
e 161 175
e 161 177
e 161 194
e 161 197
e 161 214
e 161 217
e 161 237
e 162 174
e 162 180
e 162 188
e 162 195
e 162 247
e 163 192
e 163 199
e 163 213
e 163 240
e 163 246
e 164 172
e 164 175
e 164 191
e 164 213
e 164 225
e 164 229
e 165 170
e 165 184
e 165 198
e 165 231
e 165 235
e 165 239
e 165 250
e 166 185
e 166 188
e 166 230
e 166 236
e 166 240
e 166 245
e 166 248
e 167 173
e 167 178
e 167 183
e 167 195
e 167 204
e 167 222
e 167 224
e 167 238
e 167 245
e 168 169
e 168 190
e 168 199
e 168 205
e 168 208
e 168 211
e 168 218
e 168 219
e 168 220
e 168 222
e 168 224
e 168 227
e 168 231
e 169 174
e 169 175
e 169 206
e 169 207
e 169 214
e 169 237
e 170 190
e 170 200
e 170 221
e 170 223
e 170 229
e 170 235
e 170 246
e 171 181
e 171 183
e 171 193
e 171 196
e 171 199
e 171 204
e 171 210
e 171 217
e 171 229
e 171 232
e 172 176
e 172 184
e 172 185
e 172 189
e 172 190
e 172 197
e 172 226
e 172 228
e 173 196
e 173 205
e 173 209
e 173 227
e 173 232
e 173 242
e 174 186
e 174 196
e 174 222
e 175 179
e 175 194
e 175 195
e 175 209
e 175 211
e 175 220
e 175 222
e 175 231
e 175 245
e 176 179
e 176 193
e 176 195
e 176 199
e 176 204
e 176 205
e 176 208
e 176 212
e 176 223
e 176 240
e 176 242
e 176 243
e 177 180
e 177 191
e 177 205
e 177 212
e 177 214
e 177 217
e 178 184
e 178 187
e 178 196
e 178 228
e 178 247
e 179 212
e 179 214
e 179 215
e 179 230
e 180 184
e 180 186
e 180 188
e 180 196
e 180 202
e 180 223
e 180 229
e 180 230
e 180 235
e 180 241
e 180 249
e 180 250
e 181 187
e 181 191
e 181 202
e 181 203
e 181 213
e 181 222
e 181 242
e 181 250
e 182 199
e 182 212
e 182 220
e 182 228
e 183 188
e 183 192
e 183 194
e 183 204
e 183 210
e 183 214
e 183 216
e 183 222
e 183 231
e 184 190
e 184 194
e 184 212
e 184 213
e 184 214
e 184 218
e 184 241
e 185 192
e 185 196
e 185 204
e 185 227
e 186 195
e 186 206
e 186 212
e 186 234
e 186 242
e 186 243
e 187 196
e 187 198
e 187 202
e 187 204
e 187 215
e 187 222
e 187 229
e 187 243
e 188 192
e 188 193
e 188 217
e 188 223
e 188 232
e 189 191
e 189 204
e 189 214
e 189 223
e 189 236
e 189 238
e 189 239
e 189 242
e 189 243
e 190 192
e 190 197
e 190 204
e 190 229
e 191 206
e 192 193
e 192 196
e 192 210
e 192 226
e 192 234
e 192 236
e 192 244
e 192 247
e 193 195
e 193 206
e 193 210
e 193 211
e 193 217
e 193 222
e 193 223
e 193 227
e 193 235
e 193 245
e 194 200
e 194 208
e 194 228
e 194 230
e 194 234
e 194 238
e 194 246
e 195 207
e 195 209
e 195 223
e 195 227
e 195 238
e 196 197
e 196 202
e 196 207
e 196 208
e 196 212
e 196 236
e 196 237
e 196 239
e 196 250
e 197 199
e 197 209
e 197 233
e 197 240
e 197 241
e 197 249
e 198 208
e 198 213
e 198 214
e 198 220
e 198 227
e 198 228
e 198 236
e 198 244
e 199 211
e 199 220
e 199 228
e 199 247
e 200 203
e 200 205
e 200 224
e 200 237
e 200 247
e 201 203
e 201 210
e 201 225
e 201 237
e 201 246
e 201 248
e 202 206
e 202 213
e 202 226
e 202 230
e 203 217
e 203 224
e 203 228
e 204 212
e 204 233
e 204 235
e 204 237
e 204 238
e 204 242
e 204 244
e 205 212
e 205 214
e 205 218
e 205 231
e 205 235
e 205 236
e 205 245
e 206 208
e 206 213
e 206 215
e 206 222
e 206 232
e 207 222
e 207 225
e 207 249
e 208 215
e 208 219
e 208 226
e 208 246
e 209 212
e 209 237
e 209 238
e 209 246
e 210 212
e 210 216
e 210 234
e 210 240
e 210 245
e 211 217
e 211 230
e 211 232
e 211 241
e 211 246
e 212 215
e 212 230
e 212 233
e 212 234
e 212 243
e 212 245
e 213 223
e 213 228
e 213 237
e 214 224
e 214 233
e 214 239
e 215 234
e 215 237
e 215 244
e 215 250
e 216 218
e 216 221
e 217 221
e 217 223
e 217 226
e 217 229
e 217 233
e 217 238
e 217 241
e 217 250
e 218 232
e 218 233
e 218 234
e 218 239
e 219 239
e 220 224
e 220 242
e 220 248
e 221 225
e 221 237
e 221 239
e 221 249
e 222 225
e 222 228
e 222 232
e 222 243
e 222 247
e 223 224
e 223 246
e 223 249
e 224 233
e 224 239
e 224 247
e 224 248
e 225 226
e 226 231
e 226 233
e 226 236
e 226 241
e 227 242
e 227 244
e 228 230
e 228 233
e 228 238
e 228 248
e 229 231
e 230 239
e 231 236
e 232 249
e 233 250
e 234 242
e 234 245
e 235 250
e 236 246
e 238 243
e 238 244
e 238 245
e 240 245
e 240 246
e 241 247
e 242 245
e 242 246
e 242 249
e 243 244
e 243 249
e 246 247
e 246 250
